p edge 40 102
e 1 3
e 1 4
e 1 5
e 1 7
e 1 9
e 1 10
e 1 11
e 1 16
e 1 18
e 1 25
e 1 35
e 2 4
e 2 5
e 2 8
e 2 12
e 2 13
e 2 27
e 2 33
e 2 36
e 3 4
e 3 6
e 3 12
e 3 17
e 3 20
e 3 23
e 3 31
e 4 5
e 4 10
e 4 13
e 4 25
e 4 28
e 5 8
e 5 10
e 5 12
e 5 13
e 5 14
e 5 18
e 5 21
e 5 26
e 5 29
e 6 7
e 6 14
e 6 15
e 6 19
e 6 22
e 6 28
e 6 31
e 7 9
e 7 10
e 7 11
e 7 16
e 7 25
e 7 26
e 7 35
e 7 39
e 8 10
e 8 12
e 8 13
e 8 14
e 8 21
e 8 27
e 8 32
e 8 40
e 9 10
e 9 11
e 9 16
e 9 26
e 9 35
e 10 12
e 10 14
e 10 25
e 10 26
e 10 35
e 11 16
e 11 17
e 12 13
e 12 14
e 12 27
e 12 33
e 13 36
e 14 15
e 14 32
e 15 22
e 15 32
e 15 37
e 17 23
e 18 24
e 18 29
e 18 34
e 19 22
e 19 28
e 20 24
e 20 38
e 21 29
e 21 30
e 21 40
e 22 28
e 24 34
e 25 28
e 25 39
e 27 33
e 29 30
